N = 9;
H = 5;
T = 2;

avail = array3d(1..N, 1..H, 1..T, [4, 1, 0, 7, 7, 7, 4, 5, 5, 5, 9, 1, 0, 4, 4, 9, 8, 3, 3, 4, 7, 2, 0, 6, 0, 7, 8, 6, 10, 7, 4, 0, 1, 6, 2, 10, 8, 0, 9, 0, 10, 8, 5, 10, 9, 0, 8, 0, 9, 4, 2, 0, 4, 0, 4, 8, 2, 5, 10, 8, 0, 3, 1, 6, 2, 4, 10, 7, 4, 4, 10, 1, 9, 0, 3, 0, 4, 6, 9, 6, 8, 2, 7, 8, 7, 1, 5, 4, 0, 10]);

r = array2d(1..H, 1..T, [3, 5, 4, 0, 2, 4, 2, 2, 1, 2]);
